&bands
   outdir = './',
   prefix='NaF',
   filband='NaF.band',
   lsym=.true.
/
