&bands
   outdir = './',
   prefix='NaI',
   filband='NaI.band',
   lsym=.true.
/
