&bands
   outdir = './',
   prefix='NaBr',
   filband='NaBr.band',
   lsym=.true.
/
