&bands
   outdir = './',
   prefix='GaAs',
   filband='GaAs.band',
   lsym=.true.
/
