&bands
    outdir = './work/' ,
    prefix='Si' ,
    filband='Si.band' ,
    lsym=.true.
 /
