&control
    calculation='bands' ,
    prefix='Si' ,
    pseudo_dir = './' ,
    outdir='./work/'
/
&system
    ibrav= 2 ,
    celldm(1) = 10.26221441 
    nbnd = 12,
    nat =  2 ,
    ntyp = 1 ,
    ecutwfc = 50.0 ,
    ecutrho = 250.0
/
&electrons
    mixing_beta = 0.7 ,
    conv_thr = 1.0d-8 ,
/
ATOMIC_SPECIES
  Si   28.086   Si.pbe-n-kjpaw_psl.0.1.UPF
ATOMIC_POSITIONS {crystal}
Si     0.000000   0.000000   0.000000 0 0 0
Si     0.250000   0.250000   0.250000 0 0 0
K_POINTS {crystal_b}
5
 0.00  0.50  0.00  40 !L
 0.00  0.00  0.00  60 !G
-0.50  0.00 -0.50  20 !X
-0.375 0.00 -0.675 60 !K,U
 0.00  0.00 -1.00  40 !G
