&control
    calculation='scf' ,
    prefix='Si' ,
    outdir = './work/' ,
    pseudo_dir = './' 
 /
 &system
    ibrav= 2 ,
    celldm(1) = 10.262
    nat =  2 ,
    ntyp = 1 ,
    ecutwfc = 50.0 ,
    ecutrho = 250.0 ,
 /
 &electrons
    mixing_beta = 0.7 ,
    conv_thr = 1.0d-8 ,
 /
ATOMIC_SPECIES
Si   28.086   Si.pbe-n-kjpaw_psl.0.1.UPF
ATOMIC_POSITIONS {crystal}
Si     0.000000   0.000000   0.000000 0 0 0
Si     0.250000   0.250000   0.250000 0 0 0
K_POINTS {automatic}
 6 6 6 0 0 0
