num_bands         =   16
num_wann          =   5

dis_win_min = -30
dis_win_max =  12
dis_froz_min = -30
dis_froz_max = 2.6

begin projections
C: pz
f= 0.167, 0.333, 0.00: s
f=-0.333,-0.167, 0.00: s
f= 0.167,-0.167, 0.00: s
end projections

write_hr = .true.
bands_plot = .true.
wannier_plot = .true.

wannier_plot_supercell = 3

!exclude_bands=

begin kpoint_path
G   0.00000     0.00000     0.00000   K   0.33333     0.33333     0.00000
K   0.33333     0.33333     0.00000   M   0.50000     0.00000     0.00000
M   0.50000     0.00000     0.00000   G   0.00000     0.00000     0.00000
end kpoint_path

begin unit_cell_cart
bohr
 4.602     0.0000000000     0.0000000000
-2.301    3.98544890821598665238     0.0000000000
 0.0000000000     0.0000000000     18.408
end unit_cell_cart

begin atoms_frac
C  0.0000000  0.0000000  0.00
C  0.3333333  0.6666667  0.00
end atoms_frac

mp_grid           = 12 12 1

begin kpoints
     0.00000000     0.00000000     0.00000000     0.00694444
     0.00000000     0.08333333     0.00000000     0.00694444
     0.00000000     0.16666667     0.00000000     0.00694444
     0.00000000     0.25000000     0.00000000     0.00694444
     0.00000000     0.33333333     0.00000000     0.00694444
     0.00000000     0.41666667     0.00000000     0.00694444
     0.00000000     0.50000000     0.00000000     0.00694444
     0.00000000     0.58333333     0.00000000     0.00694444
     0.00000000     0.66666667     0.00000000     0.00694444
     0.00000000     0.75000000     0.00000000     0.00694444
     0.00000000     0.83333333     0.00000000     0.00694444
     0.00000000     0.91666667     0.00000000     0.00694444
     0.08333333     0.00000000     0.00000000     0.00694444
     0.08333333     0.08333333     0.00000000     0.00694444
     0.08333333     0.16666667     0.00000000     0.00694444
     0.08333333     0.25000000     0.00000000     0.00694444
     0.08333333     0.33333333     0.00000000     0.00694444
     0.08333333     0.41666667     0.00000000     0.00694444
     0.08333333     0.50000000     0.00000000     0.00694444
     0.08333333     0.58333333     0.00000000     0.00694444
     0.08333333     0.66666667     0.00000000     0.00694444
     0.08333333     0.75000000     0.00000000     0.00694444
     0.08333333     0.83333333     0.00000000     0.00694444
     0.08333333     0.91666667     0.00000000     0.00694444
     0.16666667     0.00000000     0.00000000     0.00694444
     0.16666667     0.08333333     0.00000000     0.00694444
     0.16666667     0.16666667     0.00000000     0.00694444
     0.16666667     0.25000000     0.00000000     0.00694444
     0.16666667     0.33333333     0.00000000     0.00694444
     0.16666667     0.41666667     0.00000000     0.00694444
     0.16666667     0.50000000     0.00000000     0.00694444
     0.16666667     0.58333333     0.00000000     0.00694444
     0.16666667     0.66666667     0.00000000     0.00694444
     0.16666667     0.75000000     0.00000000     0.00694444
     0.16666667     0.83333333     0.00000000     0.00694444
     0.16666667     0.91666667     0.00000000     0.00694444
     0.25000000     0.00000000     0.00000000     0.00694444
     0.25000000     0.08333333     0.00000000     0.00694444
     0.25000000     0.16666667     0.00000000     0.00694444
     0.25000000     0.25000000     0.00000000     0.00694444
     0.25000000     0.33333333     0.00000000     0.00694444
     0.25000000     0.41666667     0.00000000     0.00694444
     0.25000000     0.50000000     0.00000000     0.00694444
     0.25000000     0.58333333     0.00000000     0.00694444
     0.25000000     0.66666667     0.00000000     0.00694444
     0.25000000     0.75000000     0.00000000     0.00694444
     0.25000000     0.83333333     0.00000000     0.00694444
     0.25000000     0.91666667     0.00000000     0.00694444
     0.33333333     0.00000000     0.00000000     0.00694444
     0.33333333     0.08333333     0.00000000     0.00694444
     0.33333333     0.16666667     0.00000000     0.00694444
     0.33333333     0.25000000     0.00000000     0.00694444
     0.33333333     0.33333333     0.00000000     0.00694444
     0.33333333     0.41666667     0.00000000     0.00694444
     0.33333333     0.50000000     0.00000000     0.00694444
     0.33333333     0.58333333     0.00000000     0.00694444
     0.33333333     0.66666667     0.00000000     0.00694444
     0.33333333     0.75000000     0.00000000     0.00694444
     0.33333333     0.83333333     0.00000000     0.00694444
     0.33333333     0.91666667     0.00000000     0.00694444
     0.41666667     0.00000000     0.00000000     0.00694444
     0.41666667     0.08333333     0.00000000     0.00694444
     0.41666667     0.16666667     0.00000000     0.00694444
     0.41666667     0.25000000     0.00000000     0.00694444
     0.41666667     0.33333333     0.00000000     0.00694444
     0.41666667     0.41666667     0.00000000     0.00694444
     0.41666667     0.50000000     0.00000000     0.00694444
     0.41666667     0.58333333     0.00000000     0.00694444
     0.41666667     0.66666667     0.00000000     0.00694444
     0.41666667     0.75000000     0.00000000     0.00694444
     0.41666667     0.83333333     0.00000000     0.00694444
     0.41666667     0.91666667     0.00000000     0.00694444
     0.50000000     0.00000000     0.00000000     0.00694444
     0.50000000     0.08333333     0.00000000     0.00694444
     0.50000000     0.16666667     0.00000000     0.00694444
     0.50000000     0.25000000     0.00000000     0.00694444
     0.50000000     0.33333333     0.00000000     0.00694444
     0.50000000     0.41666667     0.00000000     0.00694444
     0.50000000     0.50000000     0.00000000     0.00694444
     0.50000000     0.58333333     0.00000000     0.00694444
     0.50000000     0.66666667     0.00000000     0.00694444
     0.50000000     0.75000000     0.00000000     0.00694444
     0.50000000     0.83333333     0.00000000     0.00694444
     0.50000000     0.91666667     0.00000000     0.00694444
     0.58333333     0.00000000     0.00000000     0.00694444
     0.58333333     0.08333333     0.00000000     0.00694444
     0.58333333     0.16666667     0.00000000     0.00694444
     0.58333333     0.25000000     0.00000000     0.00694444
     0.58333333     0.33333333     0.00000000     0.00694444
     0.58333333     0.41666667     0.00000000     0.00694444
     0.58333333     0.50000000     0.00000000     0.00694444
     0.58333333     0.58333333     0.00000000     0.00694444
     0.58333333     0.66666667     0.00000000     0.00694444
     0.58333333     0.75000000     0.00000000     0.00694444
     0.58333333     0.83333333     0.00000000     0.00694444
     0.58333333     0.91666667     0.00000000     0.00694444
     0.66666667     0.00000000     0.00000000     0.00694444
     0.66666667     0.08333333     0.00000000     0.00694444
     0.66666667     0.16666667     0.00000000     0.00694444
     0.66666667     0.25000000     0.00000000     0.00694444
     0.66666667     0.33333333     0.00000000     0.00694444
     0.66666667     0.41666667     0.00000000     0.00694444
     0.66666667     0.50000000     0.00000000     0.00694444
     0.66666667     0.58333333     0.00000000     0.00694444
     0.66666667     0.66666667     0.00000000     0.00694444
     0.66666667     0.75000000     0.00000000     0.00694444
     0.66666667     0.83333333     0.00000000     0.00694444
     0.66666667     0.91666667     0.00000000     0.00694444
     0.75000000     0.00000000     0.00000000     0.00694444
     0.75000000     0.08333333     0.00000000     0.00694444
     0.75000000     0.16666667     0.00000000     0.00694444
     0.75000000     0.25000000     0.00000000     0.00694444
     0.75000000     0.33333333     0.00000000     0.00694444
     0.75000000     0.41666667     0.00000000     0.00694444
     0.75000000     0.50000000     0.00000000     0.00694444
     0.75000000     0.58333333     0.00000000     0.00694444
     0.75000000     0.66666667     0.00000000     0.00694444
     0.75000000     0.75000000     0.00000000     0.00694444
     0.75000000     0.83333333     0.00000000     0.00694444
     0.75000000     0.91666667     0.00000000     0.00694444
     0.83333333     0.00000000     0.00000000     0.00694444
     0.83333333     0.08333333     0.00000000     0.00694444
     0.83333333     0.16666667     0.00000000     0.00694444
     0.83333333     0.25000000     0.00000000     0.00694444
     0.83333333     0.33333333     0.00000000     0.00694444
     0.83333333     0.41666667     0.00000000     0.00694444
     0.83333333     0.50000000     0.00000000     0.00694444
     0.83333333     0.58333333     0.00000000     0.00694444
     0.83333333     0.66666667     0.00000000     0.00694444
     0.83333333     0.75000000     0.00000000     0.00694444
     0.83333333     0.83333333     0.00000000     0.00694444
     0.83333333     0.91666667     0.00000000     0.00694444
     0.91666667     0.00000000     0.00000000     0.00694444
     0.91666667     0.08333333     0.00000000     0.00694444
     0.91666667     0.16666667     0.00000000     0.00694444
     0.91666667     0.25000000     0.00000000     0.00694444
     0.91666667     0.33333333     0.00000000     0.00694444
     0.91666667     0.41666667     0.00000000     0.00694444
     0.91666667     0.50000000     0.00000000     0.00694444
     0.91666667     0.58333333     0.00000000     0.00694444
     0.91666667     0.66666667     0.00000000     0.00694444
     0.91666667     0.75000000     0.00000000     0.00694444
     0.91666667     0.83333333     0.00000000     0.00694444
     0.91666667     0.91666667     0.00000000     0.00694444
end kpoints
