&inputpp
    outdir='./work'
    prefix='graphene',
    seedname = 'graphene'
    write_unk = .true.
/
