&control
 calculation = 'nscf'
 prefix='graphene',
 tstress = .true.
 tprnfor = .true.
 pseudo_dir = './',
 outdir='./work/'
 disk_io='low'
 wf_collect=.true.
/
&system
 ibrav = 4,
 celldm(1) = 4.602,
 celldm(3) = 4,
 nat = 2,
 ntyp = 1,
 ecutwfc = 30.0,
 ecutrho = 150.0,
 occupations = 'smearing'
 smearing = 'm-p'
 degauss = 0.01
 nbnd = 16
/
&electrons
 mixing_beta = 0.7
 conv_thr = 1.0d-8
/
ATOMIC_SPECIES
C  12.0107  C.pz-van_ak.UPF
ATOMIC_POSITIONS {alat}
C 0.00 0.00 0.00
C 0.00 0.57735026918962576451 0.00
K_POINTS {crystal}
144
     0.00000000     0.00000000     0.00000000     0.00694444
     0.00000000     0.08333333     0.00000000     0.00694444
     0.00000000     0.16666667     0.00000000     0.00694444
     0.00000000     0.25000000     0.00000000     0.00694444
     0.00000000     0.33333333     0.00000000     0.00694444
     0.00000000     0.41666667     0.00000000     0.00694444
     0.00000000     0.50000000     0.00000000     0.00694444
     0.00000000     0.58333333     0.00000000     0.00694444
     0.00000000     0.66666667     0.00000000     0.00694444
     0.00000000     0.75000000     0.00000000     0.00694444
     0.00000000     0.83333333     0.00000000     0.00694444
     0.00000000     0.91666667     0.00000000     0.00694444
     0.08333333     0.00000000     0.00000000     0.00694444
     0.08333333     0.08333333     0.00000000     0.00694444
     0.08333333     0.16666667     0.00000000     0.00694444
     0.08333333     0.25000000     0.00000000     0.00694444
     0.08333333     0.33333333     0.00000000     0.00694444
     0.08333333     0.41666667     0.00000000     0.00694444
     0.08333333     0.50000000     0.00000000     0.00694444
     0.08333333     0.58333333     0.00000000     0.00694444
     0.08333333     0.66666667     0.00000000     0.00694444
     0.08333333     0.75000000     0.00000000     0.00694444
     0.08333333     0.83333333     0.00000000     0.00694444
     0.08333333     0.91666667     0.00000000     0.00694444
     0.16666667     0.00000000     0.00000000     0.00694444
     0.16666667     0.08333333     0.00000000     0.00694444
     0.16666667     0.16666667     0.00000000     0.00694444
     0.16666667     0.25000000     0.00000000     0.00694444
     0.16666667     0.33333333     0.00000000     0.00694444
     0.16666667     0.41666667     0.00000000     0.00694444
     0.16666667     0.50000000     0.00000000     0.00694444
     0.16666667     0.58333333     0.00000000     0.00694444
     0.16666667     0.66666667     0.00000000     0.00694444
     0.16666667     0.75000000     0.00000000     0.00694444
     0.16666667     0.83333333     0.00000000     0.00694444
     0.16666667     0.91666667     0.00000000     0.00694444
     0.25000000     0.00000000     0.00000000     0.00694444
     0.25000000     0.08333333     0.00000000     0.00694444
     0.25000000     0.16666667     0.00000000     0.00694444
     0.25000000     0.25000000     0.00000000     0.00694444
     0.25000000     0.33333333     0.00000000     0.00694444
     0.25000000     0.41666667     0.00000000     0.00694444
     0.25000000     0.50000000     0.00000000     0.00694444
     0.25000000     0.58333333     0.00000000     0.00694444
     0.25000000     0.66666667     0.00000000     0.00694444
     0.25000000     0.75000000     0.00000000     0.00694444
     0.25000000     0.83333333     0.00000000     0.00694444
     0.25000000     0.91666667     0.00000000     0.00694444
     0.33333333     0.00000000     0.00000000     0.00694444
     0.33333333     0.08333333     0.00000000     0.00694444
     0.33333333     0.16666667     0.00000000     0.00694444
     0.33333333     0.25000000     0.00000000     0.00694444
     0.33333333     0.33333333     0.00000000     0.00694444
     0.33333333     0.41666667     0.00000000     0.00694444
     0.33333333     0.50000000     0.00000000     0.00694444
     0.33333333     0.58333333     0.00000000     0.00694444
     0.33333333     0.66666667     0.00000000     0.00694444
     0.33333333     0.75000000     0.00000000     0.00694444
     0.33333333     0.83333333     0.00000000     0.00694444
     0.33333333     0.91666667     0.00000000     0.00694444
     0.41666667     0.00000000     0.00000000     0.00694444
     0.41666667     0.08333333     0.00000000     0.00694444
     0.41666667     0.16666667     0.00000000     0.00694444
     0.41666667     0.25000000     0.00000000     0.00694444
     0.41666667     0.33333333     0.00000000     0.00694444
     0.41666667     0.41666667     0.00000000     0.00694444
     0.41666667     0.50000000     0.00000000     0.00694444
     0.41666667     0.58333333     0.00000000     0.00694444
     0.41666667     0.66666667     0.00000000     0.00694444
     0.41666667     0.75000000     0.00000000     0.00694444
     0.41666667     0.83333333     0.00000000     0.00694444
     0.41666667     0.91666667     0.00000000     0.00694444
     0.50000000     0.00000000     0.00000000     0.00694444
     0.50000000     0.08333333     0.00000000     0.00694444
     0.50000000     0.16666667     0.00000000     0.00694444
     0.50000000     0.25000000     0.00000000     0.00694444
     0.50000000     0.33333333     0.00000000     0.00694444
     0.50000000     0.41666667     0.00000000     0.00694444
     0.50000000     0.50000000     0.00000000     0.00694444
     0.50000000     0.58333333     0.00000000     0.00694444
     0.50000000     0.66666667     0.00000000     0.00694444
     0.50000000     0.75000000     0.00000000     0.00694444
     0.50000000     0.83333333     0.00000000     0.00694444
     0.50000000     0.91666667     0.00000000     0.00694444
     0.58333333     0.00000000     0.00000000     0.00694444
     0.58333333     0.08333333     0.00000000     0.00694444
     0.58333333     0.16666667     0.00000000     0.00694444
     0.58333333     0.25000000     0.00000000     0.00694444
     0.58333333     0.33333333     0.00000000     0.00694444
     0.58333333     0.41666667     0.00000000     0.00694444
     0.58333333     0.50000000     0.00000000     0.00694444
     0.58333333     0.58333333     0.00000000     0.00694444
     0.58333333     0.66666667     0.00000000     0.00694444
     0.58333333     0.75000000     0.00000000     0.00694444
     0.58333333     0.83333333     0.00000000     0.00694444
     0.58333333     0.91666667     0.00000000     0.00694444
     0.66666667     0.00000000     0.00000000     0.00694444
     0.66666667     0.08333333     0.00000000     0.00694444
     0.66666667     0.16666667     0.00000000     0.00694444
     0.66666667     0.25000000     0.00000000     0.00694444
     0.66666667     0.33333333     0.00000000     0.00694444
     0.66666667     0.41666667     0.00000000     0.00694444
     0.66666667     0.50000000     0.00000000     0.00694444
     0.66666667     0.58333333     0.00000000     0.00694444
     0.66666667     0.66666667     0.00000000     0.00694444
     0.66666667     0.75000000     0.00000000     0.00694444
     0.66666667     0.83333333     0.00000000     0.00694444
     0.66666667     0.91666667     0.00000000     0.00694444
     0.75000000     0.00000000     0.00000000     0.00694444
     0.75000000     0.08333333     0.00000000     0.00694444
     0.75000000     0.16666667     0.00000000     0.00694444
     0.75000000     0.25000000     0.00000000     0.00694444
     0.75000000     0.33333333     0.00000000     0.00694444
     0.75000000     0.41666667     0.00000000     0.00694444
     0.75000000     0.50000000     0.00000000     0.00694444
     0.75000000     0.58333333     0.00000000     0.00694444
     0.75000000     0.66666667     0.00000000     0.00694444
     0.75000000     0.75000000     0.00000000     0.00694444
     0.75000000     0.83333333     0.00000000     0.00694444
     0.75000000     0.91666667     0.00000000     0.00694444
     0.83333333     0.00000000     0.00000000     0.00694444
     0.83333333     0.08333333     0.00000000     0.00694444
     0.83333333     0.16666667     0.00000000     0.00694444
     0.83333333     0.25000000     0.00000000     0.00694444
     0.83333333     0.33333333     0.00000000     0.00694444
     0.83333333     0.41666667     0.00000000     0.00694444
     0.83333333     0.50000000     0.00000000     0.00694444
     0.83333333     0.58333333     0.00000000     0.00694444
     0.83333333     0.66666667     0.00000000     0.00694444
     0.83333333     0.75000000     0.00000000     0.00694444
     0.83333333     0.83333333     0.00000000     0.00694444
     0.83333333     0.91666667     0.00000000     0.00694444
     0.91666667     0.00000000     0.00000000     0.00694444
     0.91666667     0.08333333     0.00000000     0.00694444
     0.91666667     0.16666667     0.00000000     0.00694444
     0.91666667     0.25000000     0.00000000     0.00694444
     0.91666667     0.33333333     0.00000000     0.00694444
     0.91666667     0.41666667     0.00000000     0.00694444
     0.91666667     0.50000000     0.00000000     0.00694444
     0.91666667     0.58333333     0.00000000     0.00694444
     0.91666667     0.66666667     0.00000000     0.00694444
     0.91666667     0.75000000     0.00000000     0.00694444
     0.91666667     0.83333333     0.00000000     0.00694444
     0.91666667     0.91666667     0.00000000     0.00694444
