&bands
   outdir = './work/',
   prefix='graphene',
   filband='graphene.band',
   lsym=.true.
/
