&bands
   outdir = './',
   prefix='NaCl',
   filband='NaCl.band',
   lsym=.true.
/
